\* Bid_Optimization_Model *\
Maximize
OBJ: 1.38777726235e-17 sub_1_choice_0 + 4.49551076425 sub_1_choice_1
 + 39.217176145 sub_1_choice_10 + 42.4375910209 sub_1_choice_11
 + 45.530496308 sub_1_choice_12 + 48.4958920063 sub_1_choice_13
 + 51.3337781157 sub_1_choice_14 + 54.0441546363 sub_1_choice_15
 + 56.627021568 sub_1_choice_16 + 59.0823789109 sub_1_choice_17
 + 61.410226665 sub_1_choice_18 + 63.6105648303 sub_1_choice_19
 + 8.86351193967 sub_1_choice_2 + 65.6833934067 sub_1_choice_20
 + 67.6287123943 sub_1_choice_21 + 69.446521793 sub_1_choice_22
 + 71.1368216029 sub_1_choice_23 + 72.699611824 sub_1_choice_24
 + 72.699611824 sub_1_choice_25 + 74.0799294151 sub_1_choice_26
 + 75.4376878169 sub_1_choice_27 + 76.7710787952 sub_1_choice_28
 + 78.078385784 sub_1_choice_29 + 13.1040035263 sub_1_choice_3
 + 79.3579873219 sub_1_choice_30 + 80.6083600951 sub_1_choice_31
 + 81.82808158 sub_1_choice_32 + 83.01583228 sub_1_choice_33
 + 84.1703975564 sub_1_choice_34 + 85.2906690498 sub_1_choice_35
 + 86.3756456961 sub_1_choice_36 + 87.4244343387 sub_1_choice_37
 + 88.4362499429 sub_1_choice_38 + 89.4104154194 sub_1_choice_39
 + 17.216985524 sub_1_choice_4 + 90.3463610651 sub_1_choice_40
 + 91.2436236321 sub_1_choice_41 + 92.1018450372 sub_1_choice_42
 + 92.9207707235 sub_1_choice_43 + 93.7002476913 sub_1_choice_44
 + 94.4402222122 sub_1_choice_45 + 95.1407372452 sub_1_choice_46
 + 95.8019295717 sub_1_choice_47 + 96.4240266693 sub_1_choice_48
 + 97.0073433437 sub_1_choice_49 + 21.2024579329 sub_1_choice_5
 + 25.060420753 sub_1_choice_6 + 28.7908739843 sub_1_choice_7
 + 32.3938176267 sub_1_choice_8 + 35.8692516803 sub_1_choice_9
 - 1.38777668935e-17 sub_2_choice_0 + 5.60240656062 sub_2_choice_1
 + 45.1020327006 sub_2_choice_10 + 48.2773208378 sub_2_choice_11
 + 51.2098971326 sub_2_choice_12 + 53.8997615851 sub_2_choice_13
 + 56.3469141952 sub_2_choice_14 + 58.551354963 sub_2_choice_15
 + 60.5130838885 sub_2_choice_16 + 62.2321009716 sub_2_choice_17
 + 63.7084062123 sub_2_choice_18 + 64.9419996107 sub_2_choice_19
 + 10.9621012789 sub_2_choice_2 + 65.9328811668 sub_2_choice_20
 + 66.6810508805 sub_2_choice_21 + 67.1865087518 sub_2_choice_22
 + 67.1865087518 sub_2_choice_23 + 67.4428779786 sub_2_choice_24
 + 67.7101291716 sub_2_choice_25 + 68.0175081341 sub_2_choice_26
 + 68.3843557049 sub_2_choice_27 + 68.8199454364 sub_2_choice_28
 + 69.3238607906 sub_2_choice_29 + 16.0790841548 sub_2_choice_3
 + 69.8868630246 sub_2_choice_30 + 70.4921767339 sub_2_choice_31
 + 71.1171009511 sub_2_choice_32 + 71.7348406876 sub_2_choice_33
 + 72.3164473638 sub_2_choice_34 + 72.8327568089 sub_2_choice_35
 + 73.256220063 sub_2_choice_36 + 73.5625344058 sub_2_choice_37
 + 73.7319988099 sub_2_choice_38 + 73.7505381273 sub_2_choice_39
 + 20.9533551884 sub_2_choice_4 + 73.610362356 sub_2_choice_40
 + 73.310249854 sub_2_choice_41 + 72.8554649841 sub_2_choice_42
 + 72.2573401546 sub_2_choice_43 + 71.5325685283 sub_2_choice_44
 + 70.7022660749 sub_2_choice_45 + 69.7908696817 sub_2_choice_46
 + 68.8249415849 sub_2_choice_47 + 67.8319495943 sub_2_choice_48
 + 66.8390878863 sub_2_choice_49 + 25.5849143796 sub_2_choice_5
 + 29.9737617285 sub_2_choice_6 + 34.1198972351 sub_2_choice_7
 + 38.0233208993 sub_2_choice_8 + 41.6840327211 sub_2_choice_9
 + 6.28509697853 sub_3_choice_1 + 52.4255018716 sub_3_choice_10
 + 56.3938282027 sub_3_choice_11 + 60.130477469 sub_3_choice_12
 + 63.6354496705 sub_3_choice_13 + 66.9087448073 sub_3_choice_14
 + 69.9503628794 sub_3_choice_15 + 72.7603038867 sub_3_choice_16
 + 75.3385678292 sub_3_choice_17 + 77.685154707 sub_3_choice_18
 + 79.8000645201 sub_3_choice_19 + 12.3385168923 sub_3_choice_2
 + 81.6832972684 sub_3_choice_20 + 83.3348529519 sub_3_choice_21
 + 84.7547315707 sub_3_choice_22 + 84.7547315707 sub_3_choice_23
 + 85.8960896691 sub_3_choice_24 + 86.9792667157 sub_3_choice_25
 + 87.9980539472 sub_3_choice_26 + 88.9468075584 sub_3_choice_27
 + 89.8204974612 sub_3_choice_28 + 90.6147494607 sub_3_choice_29
 + 18.1602597414 sub_3_choice_3 + 91.3258803719 sub_3_choice_30
 + 91.9509256958 sub_3_choice_31 + 92.4876595698 sub_3_choice_32
 + 92.9346068151 sub_3_choice_33 + 93.2910470047 sub_3_choice_34
 + 93.5570105812 sub_3_choice_35 + 93.7332671603 sub_3_choice_36
 + 93.8213062518 sub_3_choice_37 + 93.8233107315 sub_3_choice_38
 + 93.7421234829 sub_3_choice_39 + 23.7503255256 sub_3_choice_4
 + 93.5812077126 sub_3_choice_40 + 93.3446015192 sub_3_choice_41
 + 93.0368673555 sub_3_choice_42 + 92.6630370844 sub_3_choice_43
 + 92.2285533656 sub_3_choice_44 + 91.7392081482 sub_3_choice_45
 + 91.2010790594 sub_3_choice_46 + 90.6204644893 sub_3_choice_47
 + 90.0038181708 sub_3_choice_48 + 89.3576840335 sub_3_choice_49
 + 29.1087142452 sub_3_choice_5 + 34.2354259 sub_3_choice_6
 + 39.13046049 sub_3_choice_7 + 43.7938180153 sub_3_choice_8
 + 48.2254984758 sub_3_choice_9
Subject To
_C1: sub_1_choice_0 + sub_1_choice_1 + sub_1_choice_10 + sub_1_choice_11
 + sub_1_choice_12 + sub_1_choice_13 + sub_1_choice_14 + sub_1_choice_15
 + sub_1_choice_16 + sub_1_choice_17 + sub_1_choice_18 + sub_1_choice_19
 + sub_1_choice_2 + sub_1_choice_20 + sub_1_choice_21 + sub_1_choice_22
 + sub_1_choice_23 + sub_1_choice_24 + sub_1_choice_25 + sub_1_choice_26
 + sub_1_choice_27 + sub_1_choice_28 + sub_1_choice_29 + sub_1_choice_3
 + sub_1_choice_30 + sub_1_choice_31 + sub_1_choice_32 + sub_1_choice_33
 + sub_1_choice_34 + sub_1_choice_35 + sub_1_choice_36 + sub_1_choice_37
 + sub_1_choice_38 + sub_1_choice_39 + sub_1_choice_4 + sub_1_choice_40
 + sub_1_choice_41 + sub_1_choice_42 + sub_1_choice_43 + sub_1_choice_44
 + sub_1_choice_45 + sub_1_choice_46 + sub_1_choice_47 + sub_1_choice_48
 + sub_1_choice_49 + sub_1_choice_5 + sub_1_choice_6 + sub_1_choice_7
 + sub_1_choice_8 + sub_1_choice_9 <= 1
_C2: sub_2_choice_0 + sub_2_choice_1 + sub_2_choice_10 + sub_2_choice_11
 + sub_2_choice_12 + sub_2_choice_13 + sub_2_choice_14 + sub_2_choice_15
 + sub_2_choice_16 + sub_2_choice_17 + sub_2_choice_18 + sub_2_choice_19
 + sub_2_choice_2 + sub_2_choice_20 + sub_2_choice_21 + sub_2_choice_22
 + sub_2_choice_23 + sub_2_choice_24 + sub_2_choice_25 + sub_2_choice_26
 + sub_2_choice_27 + sub_2_choice_28 + sub_2_choice_29 + sub_2_choice_3
 + sub_2_choice_30 + sub_2_choice_31 + sub_2_choice_32 + sub_2_choice_33
 + sub_2_choice_34 + sub_2_choice_35 + sub_2_choice_36 + sub_2_choice_37
 + sub_2_choice_38 + sub_2_choice_39 + sub_2_choice_4 + sub_2_choice_40
 + sub_2_choice_41 + sub_2_choice_42 + sub_2_choice_43 + sub_2_choice_44
 + sub_2_choice_45 + sub_2_choice_46 + sub_2_choice_47 + sub_2_choice_48
 + sub_2_choice_49 + sub_2_choice_5 + sub_2_choice_6 + sub_2_choice_7
 + sub_2_choice_8 + sub_2_choice_9 <= 1
_C3: sub_3_choice_0 + sub_3_choice_1 + sub_3_choice_10 + sub_3_choice_11
 + sub_3_choice_12 + sub_3_choice_13 + sub_3_choice_14 + sub_3_choice_15
 + sub_3_choice_16 + sub_3_choice_17 + sub_3_choice_18 + sub_3_choice_19
 + sub_3_choice_2 + sub_3_choice_20 + sub_3_choice_21 + sub_3_choice_22
 + sub_3_choice_23 + sub_3_choice_24 + sub_3_choice_25 + sub_3_choice_26
 + sub_3_choice_27 + sub_3_choice_28 + sub_3_choice_29 + sub_3_choice_3
 + sub_3_choice_30 + sub_3_choice_31 + sub_3_choice_32 + sub_3_choice_33
 + sub_3_choice_34 + sub_3_choice_35 + sub_3_choice_36 + sub_3_choice_37
 + sub_3_choice_38 + sub_3_choice_39 + sub_3_choice_4 + sub_3_choice_40
 + sub_3_choice_41 + sub_3_choice_42 + sub_3_choice_43 + sub_3_choice_44
 + sub_3_choice_45 + sub_3_choice_46 + sub_3_choice_47 + sub_3_choice_48
 + sub_3_choice_49 + sub_3_choice_5 + sub_3_choice_6 + sub_3_choice_7
 + sub_3_choice_8 + sub_3_choice_9 <= 1
_C4: 0.0204081632653 sub_1_choice_1 + 0.204081632653 sub_1_choice_10
 + 0.224489795918 sub_1_choice_11 + 0.244897959184 sub_1_choice_12
 + 0.265306122449 sub_1_choice_13 + 0.285714285714 sub_1_choice_14
 + 0.30612244898 sub_1_choice_15 + 0.326530612245 sub_1_choice_16
 + 0.34693877551 sub_1_choice_17 + 0.367346938776 sub_1_choice_18
 + 0.387755102041 sub_1_choice_19 + 0.0408163265306 sub_1_choice_2
 + 0.408163265306 sub_1_choice_20 + 0.428571428571 sub_1_choice_21
 + 0.448979591837 sub_1_choice_22 + 0.469387755102 sub_1_choice_23
 + 0.489795918367 sub_1_choice_24 + 0.510204081633 sub_1_choice_25
 + 0.530612244898 sub_1_choice_26 + 0.551020408163 sub_1_choice_27
 + 0.571428571429 sub_1_choice_28 + 0.591836734694 sub_1_choice_29
 + 0.0612244897959 sub_1_choice_3 + 0.612244897959 sub_1_choice_30
 + 0.632653061224 sub_1_choice_31 + 0.65306122449 sub_1_choice_32
 + 0.673469387755 sub_1_choice_33 + 0.69387755102 sub_1_choice_34
 + 0.714285714286 sub_1_choice_35 + 0.734693877551 sub_1_choice_36
 + 0.755102040816 sub_1_choice_37 + 0.775510204082 sub_1_choice_38
 + 0.795918367347 sub_1_choice_39 + 0.0816326530612 sub_1_choice_4
 + 0.816326530612 sub_1_choice_40 + 0.836734693878 sub_1_choice_41
 + 0.857142857143 sub_1_choice_42 + 0.877551020408 sub_1_choice_43
 + 0.897959183673 sub_1_choice_44 + 0.918367346939 sub_1_choice_45
 + 0.938775510204 sub_1_choice_46 + 0.959183673469 sub_1_choice_47
 + 0.979591836735 sub_1_choice_48 + sub_1_choice_49
 + 0.102040816327 sub_1_choice_5 + 0.122448979592 sub_1_choice_6
 + 0.142857142857 sub_1_choice_7 + 0.163265306122 sub_1_choice_8
 + 0.183673469388 sub_1_choice_9 + 0.0204081632653 sub_2_choice_1
 + 0.204081632653 sub_2_choice_10 + 0.224489795918 sub_2_choice_11
 + 0.244897959184 sub_2_choice_12 + 0.265306122449 sub_2_choice_13
 + 0.285714285714 sub_2_choice_14 + 0.30612244898 sub_2_choice_15
 + 0.326530612245 sub_2_choice_16 + 0.34693877551 sub_2_choice_17
 + 0.367346938776 sub_2_choice_18 + 0.387755102041 sub_2_choice_19
 + 0.0408163265306 sub_2_choice_2 + 0.408163265306 sub_2_choice_20
 + 0.428571428571 sub_2_choice_21 + 0.448979591837 sub_2_choice_22
 + 0.469387755102 sub_2_choice_23 + 0.489795918367 sub_2_choice_24
 + 0.510204081633 sub_2_choice_25 + 0.530612244898 sub_2_choice_26
 + 0.551020408163 sub_2_choice_27 + 0.571428571429 sub_2_choice_28
 + 0.591836734694 sub_2_choice_29 + 0.0612244897959 sub_2_choice_3
 + 0.612244897959 sub_2_choice_30 + 0.632653061224 sub_2_choice_31
 + 0.65306122449 sub_2_choice_32 + 0.673469387755 sub_2_choice_33
 + 0.69387755102 sub_2_choice_34 + 0.714285714286 sub_2_choice_35
 + 0.734693877551 sub_2_choice_36 + 0.755102040816 sub_2_choice_37
 + 0.775510204082 sub_2_choice_38 + 0.795918367347 sub_2_choice_39
 + 0.0816326530612 sub_2_choice_4 + 0.816326530612 sub_2_choice_40
 + 0.836734693878 sub_2_choice_41 + 0.857142857143 sub_2_choice_42
 + 0.877551020408 sub_2_choice_43 + 0.897959183673 sub_2_choice_44
 + 0.918367346939 sub_2_choice_45 + 0.938775510204 sub_2_choice_46
 + 0.959183673469 sub_2_choice_47 + 0.979591836735 sub_2_choice_48
 + sub_2_choice_49 + 0.102040816327 sub_2_choice_5
 + 0.122448979592 sub_2_choice_6 + 0.142857142857 sub_2_choice_7
 + 0.163265306122 sub_2_choice_8 + 0.183673469388 sub_2_choice_9
 + 0.0204081632653 sub_3_choice_1 + 0.204081632653 sub_3_choice_10
 + 0.224489795918 sub_3_choice_11 + 0.244897959184 sub_3_choice_12
 + 0.265306122449 sub_3_choice_13 + 0.285714285714 sub_3_choice_14
 + 0.30612244898 sub_3_choice_15 + 0.326530612245 sub_3_choice_16
 + 0.34693877551 sub_3_choice_17 + 0.367346938776 sub_3_choice_18
 + 0.387755102041 sub_3_choice_19 + 0.0408163265306 sub_3_choice_2
 + 0.408163265306 sub_3_choice_20 + 0.428571428571 sub_3_choice_21
 + 0.448979591837 sub_3_choice_22 + 0.469387755102 sub_3_choice_23
 + 0.489795918367 sub_3_choice_24 + 0.510204081633 sub_3_choice_25
 + 0.530612244898 sub_3_choice_26 + 0.551020408163 sub_3_choice_27
 + 0.571428571429 sub_3_choice_28 + 0.591836734694 sub_3_choice_29
 + 0.0612244897959 sub_3_choice_3 + 0.612244897959 sub_3_choice_30
 + 0.632653061224 sub_3_choice_31 + 0.65306122449 sub_3_choice_32
 + 0.673469387755 sub_3_choice_33 + 0.69387755102 sub_3_choice_34
 + 0.714285714286 sub_3_choice_35 + 0.734693877551 sub_3_choice_36
 + 0.755102040816 sub_3_choice_37 + 0.775510204082 sub_3_choice_38
 + 0.795918367347 sub_3_choice_39 + 0.0816326530612 sub_3_choice_4
 + 0.816326530612 sub_3_choice_40 + 0.836734693878 sub_3_choice_41
 + 0.857142857143 sub_3_choice_42 + 0.877551020408 sub_3_choice_43
 + 0.897959183673 sub_3_choice_44 + 0.918367346939 sub_3_choice_45
 + 0.938775510204 sub_3_choice_46 + 0.959183673469 sub_3_choice_47
 + 0.979591836735 sub_3_choice_48 + sub_3_choice_49
 + 0.102040816327 sub_3_choice_5 + 0.122448979592 sub_3_choice_6
 + 0.142857142857 sub_3_choice_7 + 0.163265306122 sub_3_choice_8
 + 0.183673469388 sub_3_choice_9 <= 1
Binaries
sub_1_choice_0
sub_1_choice_1
sub_1_choice_10
sub_1_choice_11
sub_1_choice_12
sub_1_choice_13
sub_1_choice_14
sub_1_choice_15
sub_1_choice_16
sub_1_choice_17
sub_1_choice_18
sub_1_choice_19
sub_1_choice_2
sub_1_choice_20
sub_1_choice_21
sub_1_choice_22
sub_1_choice_23
sub_1_choice_24
sub_1_choice_25
sub_1_choice_26
sub_1_choice_27
sub_1_choice_28
sub_1_choice_29
sub_1_choice_3
sub_1_choice_30
sub_1_choice_31
sub_1_choice_32
sub_1_choice_33
sub_1_choice_34
sub_1_choice_35
sub_1_choice_36
sub_1_choice_37
sub_1_choice_38
sub_1_choice_39
sub_1_choice_4
sub_1_choice_40
sub_1_choice_41
sub_1_choice_42
sub_1_choice_43
sub_1_choice_44
sub_1_choice_45
sub_1_choice_46
sub_1_choice_47
sub_1_choice_48
sub_1_choice_49
sub_1_choice_5
sub_1_choice_6
sub_1_choice_7
sub_1_choice_8
sub_1_choice_9
sub_2_choice_0
sub_2_choice_1
sub_2_choice_10
sub_2_choice_11
sub_2_choice_12
sub_2_choice_13
sub_2_choice_14
sub_2_choice_15
sub_2_choice_16
sub_2_choice_17
sub_2_choice_18
sub_2_choice_19
sub_2_choice_2
sub_2_choice_20
sub_2_choice_21
sub_2_choice_22
sub_2_choice_23
sub_2_choice_24
sub_2_choice_25
sub_2_choice_26
sub_2_choice_27
sub_2_choice_28
sub_2_choice_29
sub_2_choice_3
sub_2_choice_30
sub_2_choice_31
sub_2_choice_32
sub_2_choice_33
sub_2_choice_34
sub_2_choice_35
sub_2_choice_36
sub_2_choice_37
sub_2_choice_38
sub_2_choice_39
sub_2_choice_4
sub_2_choice_40
sub_2_choice_41
sub_2_choice_42
sub_2_choice_43
sub_2_choice_44
sub_2_choice_45
sub_2_choice_46
sub_2_choice_47
sub_2_choice_48
sub_2_choice_49
sub_2_choice_5
sub_2_choice_6
sub_2_choice_7
sub_2_choice_8
sub_2_choice_9
sub_3_choice_0
sub_3_choice_1
sub_3_choice_10
sub_3_choice_11
sub_3_choice_12
sub_3_choice_13
sub_3_choice_14
sub_3_choice_15
sub_3_choice_16
sub_3_choice_17
sub_3_choice_18
sub_3_choice_19
sub_3_choice_2
sub_3_choice_20
sub_3_choice_21
sub_3_choice_22
sub_3_choice_23
sub_3_choice_24
sub_3_choice_25
sub_3_choice_26
sub_3_choice_27
sub_3_choice_28
sub_3_choice_29
sub_3_choice_3
sub_3_choice_30
sub_3_choice_31
sub_3_choice_32
sub_3_choice_33
sub_3_choice_34
sub_3_choice_35
sub_3_choice_36
sub_3_choice_37
sub_3_choice_38
sub_3_choice_39
sub_3_choice_4
sub_3_choice_40
sub_3_choice_41
sub_3_choice_42
sub_3_choice_43
sub_3_choice_44
sub_3_choice_45
sub_3_choice_46
sub_3_choice_47
sub_3_choice_48
sub_3_choice_49
sub_3_choice_5
sub_3_choice_6
sub_3_choice_7
sub_3_choice_8
sub_3_choice_9
End
